solving instance uflp nldep gunluk ../../../../../instances/uflp/gunluk/gunluk-50-100-3.txt sinabc2
Set parameter TokenServer to value "licences.gerad.lan"
Set parameter MIPGap to value 1e-06
Set parameter FuncPieceError to value 1e-06
Set parameter Threads to value 1
Set parameter FuncPieces to value -2
Set parameter TimeLimit to value 3600
Gurobi Optimizer version 12.0.2 build v12.0.2rc0 (linux64 - "AlmaLinux 9.6 (Sage Margay)")

CPU model: Intel(R) Xeon(R) Gold 6258R CPU @ 2.70GHz, instruction set [SSE2|AVX|AVX2|AVX512]
Thread count: 56 physical cores, 56 logical processors, using up to 1 threads

Non-default parameters:
TimeLimit  3600
MIPGap  1e-06
Threads  1
FuncPieces  -2
FuncPieceError  1e-06

Optimize a model with 5300 rows, 5350 columns and 20400 nonzeros
Model fingerprint: 0x4cb688b1
Model has 100 function constraints treated as nonlinear
  50 POW, 50 SIN
Variable types: 5300 continuous, 50 integer (50 binary)
Coefficient statistics:
  Matrix range     [1e-03, 1e+02]
  Objective range  [7e-01, 7e+01]
  Bounds range     [1e+00, 1e+10]
  RHS range        [1e+00, 1e+00]
Warning: Model contains large bounds
         Consider reformulating model or setting NumericFocus parameter
         to avoid numerical issues.
Presolve removed 5100 rows and 200 columns
Presolve time: 0.01s
Presolved: 600 rows, 5151 columns, 11000 nonzeros
Presolved model has 50 quadratic objective terms
Presolved model has 50 nonlinear constraint(s)

Solving non-convex MINLP

Variable types: 5151 continuous, 0 integer (0 binary)

Root relaxation: objective 3.580195e+02, 421 iterations, 0.01 seconds (0.00 work units)

    Nodes    |    Current Node    |     Objective Bounds      |     Work
 Expl Unexpl |  Obj  Depth IntInf | Incumbent    BestBd   Gap | It/Node Time

     0     0  358.01946    0   40          -  358.01946      -     -    0s
     0     0  358.01946    0   40          -  358.01946      -     -    0s
     0     2  358.01946    0   40          -  358.01946      -     -    0s
*  437   243             219     369.3790000  365.73573  0.99%   6.9    1s
*  438    32             219     368.7046124  365.73573  0.81%   6.9    1s

Explored 471 nodes (4766 simplex iterations) in 1.51 seconds (0.66 work units)
Thread count was 1 (of 56 available processors)

Solution count 2: 368.705 369.379 

Optimal solution found (tolerance 1.00e-06)
Best objective 3.687046124312e+02, best bound 3.687044608174e+02, gap 0.0000%

User-callback calls 1803, time in user-callback 0.00 sec
Generating Gunluk and Lee data file ../../../../../instances/uflp/gunluk/gunluk-50-100-3.txt
primal_bound = 368.7046124311982, dual_bound = 368.7044608174207, gap = 4.112066201685222e-5, time = 1.52
OPTIMAL LOCATIONS:
y[1] = 1.0
y[2] = 1.0
y[3] = 1.0
y[4] = 1.0
y[5] = 1.0
y[6] = 1.0
y[7] = 1.0
y[8] = 1.0
y[9] = 1.0
y[10] = 1.0
y[11] = 1.0
y[12] = 1.0
y[13] = 1.0
y[14] = 1.0
y[15] = 1.0
y[16] = 1.0
y[17] = 1.0
y[18] = 1.0
y[19] = 1.0
y[20] = 1.0
y[21] = 1.0
y[22] = 1.0
y[23] = 1.0
y[24] = 1.0
y[25] = 1.0
y[26] = 1.0
y[27] = 1.0
y[28] = 1.0
y[29] = 1.0
y[30] = 1.0
y[31] = 1.0
y[32] = 1.0
y[33] = 1.0
y[34] = 1.0
y[35] = 1.0
y[36] = 1.0
y[37] = 1.0
y[38] = 1.0
y[39] = 1.0
y[40] = 1.0
y[41] = 1.0
y[42] = 1.0
y[43] = 1.0
y[44] = 1.0
y[45] = 1.0
y[46] = 1.0
y[47] = 1.0
y[48] = 1.0
y[49] = 1.0
y[50] = 1.0
OPTIMAL WAREHOUSING:
f[1] = 119.0
f[2] = 166.0
f[3] = 119.0
f[4] = 208.0
f[5] = 397.0642843729008
f[6] = 150.0
f[7] = 122.0
f[8] = 80.0
f[9] = 267.0
f[10] = 28.0
f[12] = 68.0
f[14] = 26.0
f[15] = 461.0
f[16] = 27.0
f[17] = 308.0
f[18] = 30.0
f[19] = 17.0
f[22] = 333.9357156270992
f[23] = 84.0
f[27] = 68.0
f[28] = 27.0
f[29] = 45.0
f[30] = 86.0
f[31] = 104.0
f[32] = 38.0
f[33] = 33.0
f[34] = 154.0
f[35] = 108.0
f[36] = 69.0
f[37] = 109.0
f[38] = 57.0
f[39] = 76.0
f[40] = 185.0
f[41] = 28.0
f[42] = 47.241524327236164
f[44] = 275.0
f[45] = 26.0
f[46] = 73.0
f[48] = 95.75847567276384
f[50] = 3.0
OPTIMAL WAREHOUSING COSTS:
nlobj[1] = 0.21758043560134907
nlobj[2] = 0.09049981839036542
nlobj[3] = 0.3069438287947603
nlobj[4] = 0.11805948163932836
nlobj[5] = 0.168451145923118
nlobj[6] = 0.5855522179232516
nlobj[7] = 0.16332741559060304
nlobj[8] = 0.1301308625968303
nlobj[9] = 0.4450909832864561
nlobj[10] = 0.01940770444607789
nlobj[11] = 0.0
nlobj[12] = 0.11946986660359575
nlobj[13] = 0.0
nlobj[14] = 0.007065654326715974
nlobj[15] = 3.82084177895891
nlobj[16] = 0.017444786694507296
nlobj[17] = 1.1280773025584292
nlobj[18] = 0.010891908745297968
nlobj[19] = 0.0006359683731719472
nlobj[20] = 0.0
nlobj[21] = 0.0
nlobj[22] = 1.8326913963164035
nlobj[23] = 0.007754101537615118
nlobj[24] = 0.0
nlobj[25] = 0.0
nlobj[26] = 0.0
nlobj[27] = 0.005083824110791309
nlobj[28] = 0.011830372585930235
nlobj[29] = 0.04900353253443896
nlobj[30] = 0.05282707843226819
nlobj[31] = 0.20489210014302342
nlobj[32] = 0.017076463118078315
nlobj[33] = 0.0023961607036017026
nlobj[34] = 0.5456102797414287
nlobj[35] = 0.048026305152733685
nlobj[36] = 0.09945195154381475
nlobj[37] = 0.32611874228209514
nlobj[38] = 0.02769088328272547
nlobj[39] = 0.08412443329169601
nlobj[40] = 0.49582223786109697
nlobj[41] = 0.0015094881235838361
nlobj[42] = 0.022092879077818674
nlobj[43] = 0.0
nlobj[44] = 0.4717799044604394
nlobj[45] = 0.009482851859539862
nlobj[46] = 0.12155677261264584
nlobj[47] = 0.0
nlobj[48] = 0.17627722952318495
nlobj[49] = 0.0
nlobj[50] = 9.903258301800881e-5
OPTIMAL ASSIGNMENTS:
x[1, 21] = 1.0
x[1, 70] = 1.0
x[2, 30] = 1.0
x[2, 51] = 1.0
x[2, 86] = 1.0
x[3, 22] = 1.0
x[3, 94] = 1.0
x[4, 2] = 1.0
x[4, 33] = 1.0
x[4, 49] = 1.0
x[4, 82] = 1.0
x[4, 98] = 1.0
x[5, 5] = 1.0
x[5, 25] = 0.7864795758678663
x[5, 35] = 1.0
x[5, 43] = 1.0
x[5, 57] = 1.0
x[5, 63] = 1.0
x[5, 92] = 1.0
x[6, 62] = 1.0
x[6, 81] = 1.0
x[6, 93] = 1.0
x[7, 17] = 1.0
x[7, 29] = 1.0
x[7, 47] = 1.0
x[7, 61] = 1.0
x[7, 67] = 1.0
x[7, 84] = 1.0
x[8, 85] = 1.0
x[8, 100] = 1.0
x[9, 13] = 1.0
x[9, 36] = 1.0
x[9, 50] = 1.0
x[9, 60] = 1.0
x[10, 15] = 1.0
x[12, 27] = 1.0
x[12, 80] = 1.0
x[14, 20] = 1.0
x[15, 12] = 1.0
x[15, 32] = 1.0
x[15, 42] = 1.0
x[15, 45] = 1.0
x[15, 46] = 1.0
x[15, 75] = 1.0
x[15, 76] = 1.0
x[15, 96] = 1.0
x[16, 26] = 1.0
x[17, 6] = 1.0
x[17, 7] = 1.0
x[17, 23] = 1.0
x[17, 39] = 1.0
x[17, 79] = 1.0
x[18, 31] = 1.0
x[19, 1] = 1.0
x[22, 4] = 1.0
x[22, 14] = 1.0
x[22, 25] = 0.21352042413213365
x[22, 37] = 1.0
x[22, 54] = 1.0
x[22, 59] = 1.0
x[23, 3] = 1.0
x[23, 16] = 1.0
x[27, 19] = 1.0
x[28, 68] = 1.0
x[29, 18] = 1.0
x[29, 58] = 1.0
x[29, 90] = 1.0
x[30, 9] = 1.0
x[30, 41] = 1.0
x[31, 10] = 1.0
x[31, 66] = 1.0
x[32, 38] = 1.0
x[33, 73] = 1.0
x[34, 52] = 1.0
x[34, 53] = 1.0
x[34, 87] = 1.0
x[35, 78] = 1.0
x[35, 95] = 1.0
x[36, 64] = 1.0
x[37, 44] = 1.0
x[37, 48] = 1.0
x[38, 11] = 1.0
x[38, 40] = 1.0
x[39, 69] = 1.0
x[40, 24] = 1.0
x[40, 34] = 1.0
x[40, 71] = 1.0
x[40, 77] = 1.0
x[40, 88] = 1.0
x[41, 74] = 1.0
x[42, 55] = 1.0
x[42, 56] = 0.40402540545393606
x[44, 72] = 1.0
x[44, 83] = 1.0
x[44, 91] = 1.0
x[44, 97] = 1.0
x[45, 8] = 1.0
x[46, 28] = 1.0
x[46, 99] = 1.0
x[48, 56] = 0.5959745945460639
x[48, 65] = 1.0
x[50, 89] = 1.0
fixed costs = 2551.0
assignment costs = 356.74194324986746
warehousing costs = 11.962669181330739
total cost = 368.7046124311982
